50
17386

35 905
596 962
370 379
767 535
462 718
178 244
713 376
624 572
477 969
543 731
951 281
879 908
656 365
746 9
681 175
500 847
746 849
856 502
584 348
54 7
89 786
117 900
730 621
150 575
948 72
590 37
533 660
188 559
651 114
965 877
621 541
882 821
90 458
890 377
421 916
751 395
837 439
361 666
527 191
468 806
895 896
716 299
317 553
35 759
812 612
208 354
662 981
723 249
285 249
441 145
